NAME: kroA20
TYPE: TSP
COMMENT: 20-city problem A (Krolak/Felts/Nelson)
DIMENSION: 20
EDGE_WEIGHT_TYPE : EUC_2D
NODE_COORD_SECTION
1 10 15
2 4 22
3 36 32
4 91 33
5 22 4
6 44 88
7 24 84
8 12 12
9 98 93
10 12 44
11 23 12
12 67 22
13 9 91
14 23 44
15 12 11
16 20 80
17 90 20
18 12 66
19 94 84
20 93 45